language Essence 1.3

letting class be function(1 --> 1, 2 --> 1, 3 --> 1, 4 --> 1, 5 --> 2, 6 --> 2, 7 --> 1)
letting deck_length be 79
letting deck_width be 77
letting length be function(1 --> 1, 2 --> 75, 3 --> 1, 4 --> 1, 5 --> 3, 6 --> 4, 7 --> 2)
letting n_classes be 2
letting n_containers be 7
letting separation be function({1, 2} --> 44)
letting width be function(1 --> 39, 2 --> 61, 3 --> 6, 4 --> 12, 5 --> 53, 6 --> 3, 7 --> 1)
